============================[ Problem Statistics ]=============================|                                                                             ||  Number of variables:          4242                                         ||  Number of clauses:            9911                                         ||  Parse time:                   0.31 s                                       ||                                                                             |============================[ Search Statistics ]==============================| Conflicts |          ORIGINAL         |          LEARNT          | Progress ||           |    Vars  Clauses Literals |    Limit  Clauses Lit/Cl |          |===============================================================================|       100 |    1591     6116   477957 |     2242      100     53 | 62.501 % |===============================================================================restarts              : 2conflicts             : 179            (378 /sec)decisions             : 349            (0.00 % random) (738 /sec)propagations          : 10022          (21188 /sec)conflict literals     : 12237          (95.25 % deleted)CPU time              : 0.473 sSATISFIABLE